p tw 176 39601 2 
1 3 
1 4 
1 5 
1 6 
1 7 
1 8 
1 9 
1 10 
1 11 
1 12 
1 13 
1 14 
1 15 
1 16 
1 17 
1 18 
1 19 
1 20 
1 21 
1 22 
1 23 
1 24 
1 25 
1 26 
1 27 
1 28 
1 29 
1 30 
1 31 
1 42 
1 47 
1 60 
1 95 
1 107 
1 113 
1 123 
1 129 
1 134 
1 143 
1 152 
1 158 
1 159 
1 160 
1 161 
2 3 
2 4 
2 5 
2 6 
2 7 
2 8 
2 9 
2 10 
2 11 
2 12 
2 13 
2 14 
2 15 
2 16 
2 17 
2 30 
2 32 
2 33 
2 34 
2 35 
2 36 
2 37 
2 38 
2 39 
2 40 
2 41 
2 42 
2 43 
2 44 
2 45 
2 46 
2 81 
2 91 
2 101 
2 103 
2 114 
2 126 
2 135 
2 147 
2 151 
2 154 
2 161 
2 167 
2 170 
3 4 
3 5 
3 6 
3 7 
3 8 
3 9 
3 10 
3 11 
3 12 
3 13 
3 14 
3 15 
3 16 
3 18 
3 22 
3 32 
3 36 
3 46 
3 47 
3 48 
3 49 
3 50 
3 51 
3 52 
3 53 
3 54 
3 55 
3 56 
3 57 
3 58 
3 61 
3 72 
3 82 
3 92 
3 93 
3 94 
3 95 
3 96 
3 97 
3 98 
3 99 
3 100 
3 101 
4 5 
4 6 
4 7 
4 8 
4 9 
4 10 
4 11 
4 12 
4 13 
4 14 
4 15 
4 16 
4 19 
4 25 
4 33 
4 43 
4 46 
4 54 
4 59 
4 60 
4 61 
4 62 
4 63 
4 64 
4 65 
4 66 
4 67 
4 68 
4 69 
4 70 
4 72 
4 84 
4 106 
4 121 
4 133 
4 148 
4 152 
4 153 
4 154 
4 155 
4 156 
4 157 
5 6 
5 7 
5 8 
5 9 
5 10 
5 11 
5 12 
5 13 
5 14 
5 15 
5 16 
5 20 
5 26 
5 34 
5 44 
5 47 
5 56 
5 59 
5 67 
5 71 
5 72 
5 73 
5 74 
5 75 
5 76 
5 77 
5 78 
5 79 
5 80 
5 81 
5 83 
5 98 
5 116 
5 122 
5 131 
5 142 
5 144 
5 155 
5 159 
5 166 
5 167 
6 7 
6 8 
6 9 
6 10 
6 11 
6 12 
6 13 
6 14 
6 15 
6 16 
6 19 
6 21 
6 35 
6 38 
6 48 
6 51 
6 60 
6 71 
6 75 
6 82 
6 83 
6 84 
6 85 
6 86 
6 87 
6 88 
6 89 
6 90 
6 91 
6 94 
6 103 
6 110 
6 118 
6 119 
6 120 
6 121 
6 122 
6 123 
6 124 
6 125 
7 8 
7 9 
7 10 
7 11 
7 12 
7 13 
7 14 
7 15 
7 16 
7 23 
7 31 
7 35 
7 37 
7 49 
7 58 
7 62 
7 69 
7 73 
7 79 
7 83 
7 92 
7 100 
7 102 
7 103 
7 104 
7 105 
7 106 
7 107 
7 108 
7 109 
7 110 
7 129 
7 138 
7 139 
7 148 
7 163 
7 167 
7 169 
7 172 
8 9 
8 10 
8 11 
8 12 
8 13 
8 14 
8 15 
8 16 
8 24 
8 29 
8 33 
8 41 
8 50 
8 57 
8 59 
8 74 
8 84 
8 87 
8 93 
8 101 
8 102 
8 106 
8 110 
8 111 
8 112 
8 113 
8 114 
8 115 
8 116 
8 117 
8 125 
8 131 
8 134 
8 150 
8 164 
8 169 
8 175 
8 176 
9 10 
9 11 
9 12 
9 13 
9 14 
9 15 
9 16 
9 25 
9 31 
9 37 
9 39 
9 48 
9 52 
9 63 
9 68 
9 76 
9 77 
9 85 
9 92 
9 97 
9 111 
9 117 
9 118 
9 124 
9 126 
9 127 
9 128 
9 129 
9 130 
9 131 
9 132 
9 144 
9 157 
9 158 
9 170 
9 174 
9 176 
10 11 
10 12 
10 13 
10 14 
10 15 
10 16 
10 17 
10 26 
10 34 
10 53 
10 58 
10 61 
10 64 
10 71 
10 86 
10 94 
10 104 
10 109 
10 111 
10 116 
10 119 
10 128 
10 132 
10 133 
10 134 
10 135 
10 136 
10 137 
10 138 
10 146 
10 156 
10 161 
10 162 
10 165 
10 171 
10 176 
11 12 
11 13 
11 14 
11 15 
11 16 
11 23 
11 27 
11 40 
11 45 
11 50 
11 54 
11 64 
11 69 
11 73 
11 80 
11 85 
11 87 
11 95 
11 98 
11 112 
11 120 
11 123 
11 126 
11 132 
11 137 
11 139 
11 140 
11 141 
11 142 
11 146 
11 151 
11 153 
11 168 
11 174 
11 175 
12 13 
12 14 
12 15 
12 16 
12 28 
12 29 
12 41 
12 44 
12 51 
12 53 
12 65 
12 66 
12 74 
12 78 
12 82 
12 86 
12 96 
12 105 
12 108 
12 114 
12 121 
12 127 
12 130 
12 139 
12 141 
12 143 
12 144 
12 145 
12 146 
12 147 
12 153 
12 158 
12 162 
12 163 
13 14 
13 15 
13 16 
13 21 
13 24 
13 32 
13 42 
13 55 
13 65 
13 67 
13 76 
13 77 
13 88 
13 96 
13 99 
13 104 
13 108 
13 115 
13 120 
13 122 
13 128 
13 133 
13 140 
13 145 
13 148 
13 149 
13 150 
13 151 
13 160 
13 168 
13 169 
13 170 
13 171 
14 15 
14 16 
14 22 
14 27 
14 43 
14 45 
14 52 
14 55 
14 66 
14 70 
14 78 
14 79 
14 89 
14 90 
14 97 
14 105 
14 107 
14 115 
14 117 
14 118 
14 119 
14 138 
14 142 
14 147 
14 149 
14 154 
14 159 
14 164 
14 165 
14 171 
14 173 
14 175 
15 16 
15 18 
15 20 
15 38 
15 40 
15 49 
15 63 
15 70 
15 80 
15 89 
15 91 
15 99 
15 100 
15 102 
15 113 
15 124 
15 130 
15 135 
15 136 
15 140 
15 143 
15 145 
15 150 
15 155 
15 156 
15 162 
15 164 
15 166 
15 172 
15 173 
15 174 
16 28 
16 30 
16 36 
16 39 
16 56 
16 57 
16 62 
16 68 
16 75 
16 81 
16 88 
16 90 
16 93 
16 109 
16 112 
16 125 
16 127 
16 136 
16 137 
16 141 
16 149 
16 152 
16 157 
16 160 
16 163 
16 165 
16 166 
16 168 
16 172 
16 173 
17 18 
17 19 
17 20 
17 21 
17 22 
17 23 
17 24 
17 25 
17 26 
17 27 
17 28 
17 29 
17 30 
17 31 
17 32 
17 33 
17 34 
17 35 
17 36 
17 37 
17 38 
17 39 
17 40 
17 41 
17 42 
17 43 
17 44 
17 45 
17 58 
17 64 
17 71 
17 94 
17 109 
17 116 
17 128 
17 146 
17 156 
17 161 
17 162 
17 165 
17 171 
17 176 
18 19 
18 20 
18 21 
18 22 
18 23 
18 24 
18 25 
18 26 
18 27 
18 28 
18 29 
18 30 
18 31 
18 32 
18 40 
18 46 
18 47 
18 48 
18 49 
18 50 
18 51 
18 52 
18 53 
18 54 
18 55 
18 56 
18 57 
18 58 
18 63 
18 80 
18 89 
18 99 
18 102 
18 124 
18 135 
18 143 
18 150 
18 155 
18 162 
18 172 
18 173 
19 20 
19 21 
19 22 
19 23 
19 24 
19 25 
19 26 
19 27 
19 28 
19 29 
19 30 
19 31 
19 33 
19 38 
19 46 
19 51 
19 59 
19 60 
19 61 
19 62 
19 63 
19 64 
19 65 
19 66 
19 67 
19 68 
19 69 
19 70 
19 75 
19 94 
19 103 
19 110 
19 118 
19 119 
19 120 
19 121 
19 122 
19 123 
19 124 
19 125 
20 21 
20 22 
20 23 
20 24 
20 25 
20 26 
20 27 
20 28 
20 29 
20 30 
20 31 
20 34 
20 38 
20 47 
20 49 
20 59 
20 70 
20 71 
20 72 
20 73 
20 74 
20 75 
20 76 
20 77 
20 78 
20 79 
20 80 
20 81 
20 91 
20 100 
20 113 
20 130 
20 136 
20 140 
20 145 
20 156 
20 164 
20 166 
20 174 
21 22 
21 23 
21 24 
21 25 
21 26 
21 27 
21 28 
21 29 
21 30 
21 31 
21 32 
21 35 
21 48 
21 60 
21 67 
21 71 
21 76 
21 82 
21 83 
21 84 
21 85 
21 86 
21 87 
21 88 
21 89 
21 90 
21 91 
21 99 
21 108 
21 115 
21 120 
21 133 
21 145 
21 160 
21 168 
21 169 
21 170 
21 171 
22 23 
22 24 
22 25 
22 26 
22 27 
22 28 
22 29 
22 30 
22 31 
22 36 
22 43 
22 55 
22 61 
22 70 
22 72 
22 78 
22 82 
22 90 
22 92 
22 93 
22 94 
22 95 
22 96 
22 97 
22 98 
22 99 
22 100 
22 101 
22 107 
22 117 
22 118 
22 138 
22 142 
22 147 
22 171 
22 173 
22 175 
23 24 
23 25 
23 26 
23 27 
23 28 
23 29 
23 30 
23 31 
23 37 
23 45 
23 49 
23 50 
23 62 
23 69 
23 73 
23 80 
23 83 
23 85 
23 92 
23 98 
23 102 
23 103 
23 104 
23 105 
23 106 
23 107 
23 108 
23 109 
23 123 
23 137 
23 146 
23 151 
23 153 
23 168 
23 174 
23 175 
24 25 
24 26 
24 27 
24 28 
24 29 
24 30 
24 31 
24 33 
24 42 
24 50 
24 55 
24 65 
24 74 
24 77 
24 84 
24 88 
24 93 
24 96 
24 102 
24 104 
24 110 
24 111 
24 112 
24 113 
24 114 
24 115 
24 116 
24 117 
24 122 
24 128 
24 140 
24 148 
24 149 
24 150 
24 151 
25 26 
25 27 
25 28 
25 29 
25 30 
25 31 
25 39 
25 43 
25 52 
25 54 
25 63 
25 72 
25 76 
25 84 
25 85 
25 92 
25 106 
25 111 
25 118 
25 121 
25 126 
25 127 
25 128 
25 129 
25 130 
25 131 
25 133 
25 148 
25 152 
25 153 
25 154 
25 155 
25 156 
25 157 
26 27 
26 28 
26 29 
26 30 
26 31 
26 34 
26 44 
26 53 
26 56 
26 61 
26 67 
26 83 
26 86 
26 98 
26 104 
26 111 
26 116 
26 119 
26 122 
26 131 
26 132 
26 133 
26 134 
26 135 
26 136 
26 137 
26 138 
26 142 
26 144 
26 155 
26 159 
26 166 
26 167 
27 28 
27 29 
27 30 
27 31 
27 40 
27 45 
27 52 
27 54 
27 64 
27 66 
27 73 
27 79 
27 87 
27 89 
27 95 
27 97 
27 105 
27 112 
27 115 
27 119 
27 120 
27 126 
27 132 
27 139 
27 140 
27 141 
27 142 
27 149 
27 154 
27 159 
27 164 
27 165 
28 29 
28 30 
28 31 
28 39 
28 41 
28 53 
28 56 
28 65 
28 68 
28 74 
28 81 
28 82 
28 90 
28 93 
28 105 
28 109 
28 121 
28 125 
28 127 
28 136 
28 139 
28 141 
28 143 
28 144 
28 145 
28 146 
28 147 
28 149 
28 152 
28 168 
28 172 
29 30 
29 31 
29 41 
29 44 
29 51 
29 57 
29 59 
29 66 
29 78 
29 86 
29 87 
29 96 
29 101 
29 106 
29 108 
29 114 
29 125 
29 130 
29 131 
29 134 
29 141 
29 150 
29 153 
29 158 
29 162 
29 163 
29 164 
29 169 
29 175 
29 176 
30 31 
30 36 
30 46 
30 57 
30 62 
30 75 
30 81 
30 88 
30 91 
30 101 
30 103 
30 112 
30 114 
30 126 
30 127 
30 135 
30 137 
30 147 
30 151 
30 154 
30 157 
30 160 
30 161 
30 163 
30 165 
30 166 
30 167 
30 170 
30 173 
31 35 
31 37 
31 48 
31 58 
31 68 
31 69 
31 77 
31 79 
31 97 
31 100 
31 110 
31 117 
31 124 
31 129 
31 132 
31 138 
31 139 
31 144 
31 148 
31 157 
31 158 
31 163 
31 167 
31 169 
31 170 
31 172 
31 174 
31 176 
32 33 
32 34 
32 35 
32 36 
32 37 
32 38 
32 39 
32 40 
32 41 
32 42 
32 43 
32 44 
32 45 
32 46 
32 47 
32 48 
32 49 
32 50 
32 51 
32 52 
32 53 
32 54 
32 55 
32 56 
32 57 
32 58 
32 67 
32 76 
32 99 
32 108 
32 115 
32 120 
32 133 
32 145 
32 160 
32 168 
32 169 
32 170 
32 171 
33 34 
33 35 
33 36 
33 37 
33 38 
33 39 
33 40 
33 41 
33 42 
33 43 
33 44 
33 45 
33 46 
33 50 
33 59 
33 60 
33 61 
33 62 
33 63 
33 64 
33 65 
33 66 
33 67 
33 68 
33 69 
33 70 
33 74 
33 84 
33 93 
33 102 
33 110 
33 111 
33 112 
33 113 
33 114 
33 115 
33 116 
33 117 
34 35 
34 36 
34 37 
34 38 
34 39 
34 40 
34 41 
34 42 
34 43 
34 44 
34 45 
34 47 
34 53 
34 59 
34 61 
34 71 
34 72 
34 73 
34 74 
34 75 
34 76 
34 77 
34 78 
34 79 
34 80 
34 81 
34 86 
34 104 
34 111 
34 119 
34 132 
34 133 
34 134 
34 135 
34 136 
34 137 
34 138 
35 36 
35 37 
35 38 
35 39 
35 40 
35 41 
35 42 
35 43 
35 44 
35 45 
35 48 
35 58 
35 60 
35 69 
35 71 
35 79 
35 82 
35 83 
35 84 
35 85 
35 86 
35 87 
35 88 
35 89 
35 90 
35 91 
35 100 
35 110 
35 129 
35 138 
35 139 
35 148 
35 163 
35 167 
35 169 
35 172 
36 37 
36 38 
36 39 
36 40 
36 41 
36 42 
36 43 
36 44 
36 45 
36 57 
36 61 
36 62 
36 72 
36 75 
36 82 
36 88 
36 92 
36 93 
36 94 
36 95 
36 96 
36 97 
36 98 
36 99 
36 100 
36 101 
36 112 
36 127 
36 137 
36 157 
36 160 
36 163 
36 165 
36 166 
36 173 
37 38 
37 39 
37 40 
37 41 
37 42 
37 43 
37 44 
37 45 
37 48 
37 49 
37 62 
37 68 
37 73 
37 77 
37 83 
37 92 
37 97 
37 102 
37 103 
37 104 
37 105 
37 106 
37 107 
37 108 
37 109 
37 117 
37 124 
37 132 
37 144 
37 157 
37 158 
37 170 
37 174 
37 176 
38 39 
38 40 
38 41 
38 42 
38 43 
38 44 
38 45 
38 49 
38 51 
38 70 
38 75 
38 91 
38 94 
38 100 
38 103 
38 110 
38 113 
38 118 
38 119 
38 120 
38 121 
38 122 
38 123 
38 124 
38 125 
38 130 
38 136 
38 140 
38 145 
38 156 
38 164 
38 166 
38 174 
39 40 
39 41 
39 42 
39 43 
39 44 
39 45 
39 52 
39 56 
39 63 
39 68 
39 76 
39 81 
39 85 
39 90 
39 92 
39 93 
39 109 
39 111 
39 118 
39 125 
39 126 
39 127 
39 128 
39 129 
39 130 
39 131 
39 136 
39 141 
39 149 
39 152 
39 168 
39 172 
40 41 
40 42 
40 43 
40 44 
40 45 
40 54 
40 63 
40 64 
40 73 
40 80 
40 87 
40 89 
40 95 
40 99 
40 102 
40 112 
40 120 
40 124 
40 126 
40 132 
40 135 
40 139 
40 140 
40 141 
40 142 
40 143 
40 150 
40 155 
40 162 
40 172 
40 173 
41 42 
41 43 
41 44 
41 45 
41 53 
41 57 
41 59 
41 65 
41 74 
41 82 
41 87 
41 101 
41 105 
41 106 
41 121 
41 125 
41 127 
41 131 
41 134 
41 139 
41 143 
41 144 
41 145 
41 146 
41 147 
41 150 
41 164 
41 169 
41 175 
41 176 
42 43 
42 44 
42 45 
42 47 
42 55 
42 60 
42 65 
42 77 
42 88 
42 95 
42 96 
42 104 
42 107 
42 113 
42 122 
42 123 
42 128 
42 129 
42 134 
42 140 
42 143 
42 148 
42 149 
42 150 
42 151 
42 152 
42 158 
42 159 
42 160 
42 161 
43 44 
43 45 
43 54 
43 55 
43 70 
43 72 
43 78 
43 84 
43 90 
43 106 
43 107 
43 117 
43 118 
43 121 
43 133 
43 138 
43 142 
43 147 
43 148 
43 152 
43 153 
43 154 
43 155 
43 156 
43 157 
43 171 
43 173 
43 175 
44 45 
44 51 
44 56 
44 66 
44 67 
44 78 
44 83 
44 86 
44 96 
44 98 
44 108 
44 114 
44 116 
44 122 
44 130 
44 131 
44 141 
44 142 
44 144 
44 153 
44 155 
44 158 
44 159 
44 162 
44 163 
44 166 
44 167 
45 50 
45 52 
45 66 
45 69 
45 79 
45 80 
45 85 
45 89 
45 97 
45 98 
45 105 
45 115 
45 119 
45 123 
45 137 
45 146 
45 149 
45 151 
45 153 
45 154 
45 159 
45 164 
45 165 
45 168 
45 174 
45 175 
46 47 
46 48 
46 49 
46 50 
46 51 
46 52 
46 53 
46 54 
46 55 
46 56 
46 57 
46 58 
46 59 
46 60 
46 61 
46 62 
46 63 
46 64 
46 65 
46 66 
46 67 
46 68 
46 69 
46 70 
46 81 
46 91 
46 101 
46 103 
46 114 
46 126 
46 135 
46 147 
46 151 
46 154 
46 161 
46 167 
46 170 
47 48 
47 49 
47 50 
47 51 
47 52 
47 53 
47 54 
47 55 
47 56 
47 57 
47 58 
47 59 
47 60 
47 71 
47 72 
47 73 
47 74 
47 75 
47 76 
47 77 
47 78 
47 79 
47 80 
47 81 
47 95 
47 107 
47 113 
47 123 
47 129 
47 134 
47 143 
47 152 
47 158 
47 159 
47 160 
47 161 
48 49 
48 50 
48 51 
48 52 
48 53 
48 54 
48 55 
48 56 
48 57 
48 58 
48 60 
48 68 
48 71 
48 77 
48 82 
48 83 
48 84 
48 85 
48 86 
48 87 
48 88 
48 89 
48 90 
48 91 
48 97 
48 117 
48 124 
48 132 
48 144 
48 157 
48 158 
48 170 
48 174 
48 176 
49 50 
49 51 
49 52 
49 53 
49 54 
49 55 
49 56 
49 57 
49 58 
49 62 
49 70 
49 73 
49 83 
49 91 
49 92 
49 100 
49 102 
49 103 
49 104 
49 105 
49 106 
49 107 
49 108 
49 109 
49 113 
49 130 
49 136 
49 140 
49 145 
49 156 
49 164 
49 166 
49 174 
50 51 
50 52 
50 53 
50 54 
50 55 
50 56 
50 57 
50 58 
50 69 
50 74 
50 80 
50 84 
50 85 
50 93 
50 98 
50 102 
50 110 
50 111 
50 112 
50 113 
50 114 
50 115 
50 116 
50 117 
50 123 
50 137 
50 146 
50 151 
50 153 
50 168 
50 174 
50 175 
51 52 
51 53 
51 54 
51 55 
51 56 
51 57 
51 58 
51 66 
51 75 
51 78 
51 86 
51 94 
51 96 
51 103 
51 108 
51 110 
51 114 
51 118 
51 119 
51 120 
51 121 
51 122 
51 123 
51 124 
51 125 
51 130 
51 141 
51 153 
51 158 
51 162 
51 163 
52 53 
52 54 
52 55 
52 56 
52 57 
52 58 
52 63 
52 66 
52 76 
52 79 
52 85 
52 89 
52 92 
52 97 
52 105 
52 111 
52 115 
52 118 
52 119 
52 126 
52 127 
52 128 
52 129 
52 130 
52 131 
52 149 
52 154 
52 159 
52 164 
52 165 
53 54 
53 55 
53 56 
53 57 
53 58 
53 61 
53 65 
53 74 
53 82 
53 86 
53 104 
53 105 
53 111 
53 119 
53 121 
53 127 
53 132 
53 133 
53 134 
53 135 
53 136 
53 137 
53 138 
53 139 
53 143 
53 144 
53 145 
53 146 
53 147 
54 55 
54 56 
54 57 
54 58 
54 64 
54 72 
54 73 
54 84 
54 87 
54 95 
54 106 
54 112 
54 120 
54 121 
54 126 
54 132 
54 133 
54 139 
54 140 
54 141 
54 142 
54 148 
54 152 
54 153 
54 154 
54 155 
54 156 
54 157 
55 56 
55 57 
55 58 
55 65 
55 70 
55 77 
55 78 
55 88 
55 90 
55 96 
55 104 
55 107 
55 117 
55 118 
55 122 
55 128 
55 138 
55 140 
55 142 
55 147 
55 148 
55 149 
55 150 
55 151 
55 171 
55 173 
55 175 
56 57 
56 58 
56 67 
56 68 
56 81 
56 83 
56 90 
56 93 
56 98 
56 109 
56 116 
56 122 
56 125 
56 131 
56 136 
56 141 
56 142 
56 144 
56 149 
56 152 
56 155 
56 159 
56 166 
56 167 
56 168 
56 172 
57 58 
57 59 
57 62 
57 75 
57 87 
57 88 
57 101 
57 106 
57 112 
57 125 
57 127 
57 131 
57 134 
57 137 
57 150 
57 157 
57 160 
57 163 
57 164 
57 165 
57 166 
57 169 
57 173 
57 175 
57 176 
58 64 
58 69 
58 71 
58 79 
58 94 
58 100 
58 109 
58 110 
58 116 
58 128 
58 129 
58 138 
58 139 
58 146 
58 148 
58 156 
58 161 
58 162 
58 163 
58 165 
58 167 
58 169 
58 171 
58 172 
58 176 
59 60 
59 61 
59 62 
59 63 
59 64 
59 65 
59 66 
59 67 
59 68 
59 69 
59 70 
59 71 
59 72 
59 73 
59 74 
59 75 
59 76 
59 77 
59 78 
59 79 
59 80 
59 81 
59 87 
59 101 
59 106 
59 125 
59 131 
59 134 
59 150 
59 164 
59 169 
59 175 
59 176 
60 61 
60 62 
60 63 
60 64 
60 65 
60 66 
60 67 
60 68 
60 69 
60 70 
60 71 
60 82 
60 83 
60 84 
60 85 
60 86 
60 87 
60 88 
60 89 
60 90 
60 91 
60 95 
60 107 
60 113 
60 123 
60 129 
60 134 
60 143 
60 152 
60 158 
60 159 
60 160 
60 161 
61 62 
61 63 
61 64 
61 65 
61 66 
61 67 
61 68 
61 69 
61 70 
61 72 
61 82 
61 86 
61 92 
61 93 
61 94 
61 95 
61 96 
61 97 
61 98 
61 99 
61 100 
61 101 
61 104 
61 111 
61 119 
61 132 
61 133 
61 134 
61 135 
61 136 
61 137 
61 138 
62 63 
62 64 
62 65 
62 66 
62 67 
62 68 
62 69 
62 70 
62 73 
62 75 
62 83 
62 88 
62 92 
62 102 
62 103 
62 104 
62 105 
62 106 
62 107 
62 108 
62 109 
62 112 
62 127 
62 137 
62 157 
62 160 
62 163 
62 165 
62 166 
62 173 
63 64 
63 65 
63 66 
63 67 
63 68 
63 69 
63 70 
63 76 
63 80 
63 85 
63 89 
63 92 
63 99 
63 102 
63 111 
63 118 
63 124 
63 126 
63 127 
63 128 
63 129 
63 130 
63 131 
63 135 
63 143 
63 150 
63 155 
63 162 
63 172 
63 173 
64 65 
64 66 
64 67 
64 68 
64 69 
64 70 
64 71 
64 73 
64 87 
64 94 
64 95 
64 109 
64 112 
64 116 
64 120 
64 126 
64 128 
64 132 
64 139 
64 140 
64 141 
64 142 
64 146 
64 156 
64 161 
64 162 
64 165 
64 171 
64 176 
65 66 
65 67 
65 68 
65 69 
65 70 
65 74 
65 77 
65 82 
65 88 
65 96 
65 104 
65 105 
65 121 
65 122 
65 127 
65 128 
65 139 
65 140 
65 143 
65 144 
65 145 
65 146 
65 147 
65 148 
65 149 
65 150 
65 151 
66 67 
66 68 
66 69 
66 70 
66 78 
66 79 
66 86 
66 89 
66 96 
66 97 
66 105 
66 108 
66 114 
66 115 
66 119 
66 130 
66 141 
66 149 
66 153 
66 154 
66 158 
66 159 
66 162 
66 163 
66 164 
66 165 
67 68 
67 69 
67 70 
67 76 
67 83 
67 98 
67 99 
67 108 
67 115 
67 116 
67 120 
67 122 
67 131 
67 133 
67 142 
67 144 
67 145 
67 155 
67 159 
67 160 
67 166 
67 167 
67 168 
67 169 
67 170 
67 171 
68 69 
68 70 
68 77 
68 81 
68 90 
68 93 
68 97 
68 109 
68 117 
68 124 
68 125 
68 132 
68 136 
68 141 
68 144 
68 149 
68 152 
68 157 
68 158 
68 168 
68 170 
68 172 
68 174 
68 176 
69 70 
69 79 
69 80 
69 85 
69 98 
69 100 
69 110 
69 123 
69 129 
69 137 
69 138 
69 139 
69 146 
69 148 
69 151 
69 153 
69 163 
69 167 
69 168 
69 169 
69 172 
69 174 
69 175 
70 78 
70 90 
70 91 
70 100 
70 107 
70 113 
70 117 
70 118 
70 130 
70 136 
70 138 
70 140 
70 142 
70 145 
70 147 
70 156 
70 164 
70 166 
70 171 
70 173 
70 174 
70 175 
71 72 
71 73 
71 74 
71 75 
71 76 
71 77 
71 78 
71 79 
71 80 
71 81 
71 82 
71 83 
71 84 
71 85 
71 86 
71 87 
71 88 
71 89 
71 90 
71 91 
71 94 
71 109 
71 116 
71 128 
71 146 
71 156 
71 161 
71 162 
71 165 
71 171 
71 176 
72 73 
72 74 
72 75 
72 76 
72 77 
72 78 
72 79 
72 80 
72 81 
72 82 
72 84 
72 92 
72 93 
72 94 
72 95 
72 96 
72 97 
72 98 
72 99 
72 100 
72 101 
72 106 
72 121 
72 133 
72 148 
72 152 
72 153 
72 154 
72 155 
72 156 
72 157 
73 74 
73 75 
73 76 
73 77 
73 78 
73 79 
73 80 
73 81 
73 83 
73 87 
73 92 
73 95 
73 102 
73 103 
73 104 
73 105 
73 106 
73 107 
73 108 
73 109 
73 112 
73 120 
73 126 
73 132 
73 139 
73 140 
73 141 
73 142 
74 75 
74 76 
74 77 
74 78 
74 79 
74 80 
74 81 
74 82 
74 84 
74 93 
74 102 
74 105 
74 110 
74 111 
74 112 
74 113 
74 114 
74 115 
74 116 
74 117 
74 121 
74 127 
74 139 
74 143 
74 144 
74 145 
74 146 
74 147 
75 76 
75 77 
75 78 
75 79 
75 80 
75 81 
75 88 
75 94 
75 103 
75 110 
75 112 
75 118 
75 119 
75 120 
75 121 
75 122 
75 123 
75 124 
75 125 
75 127 
75 137 
75 157 
75 160 
75 163 
75 165 
75 166 
75 173 
76 77 
76 78 
76 79 
76 80 
76 81 
76 85 
76 92 
76 99 
76 108 
76 111 
76 115 
76 118 
76 120 
76 126 
76 127 
76 128 
76 129 
76 130 
76 131 
76 133 
76 145 
76 160 
76 168 
76 169 
76 170 
76 171 
77 78 
77 79 
77 80 
77 81 
77 88 
77 96 
77 97 
77 104 
77 117 
77 122 
77 124 
77 128 
77 132 
77 140 
77 144 
77 148 
77 149 
77 150 
77 151 
77 157 
77 158 
77 170 
77 174 
77 176 
78 79 
78 80 
78 81 
78 86 
78 90 
78 96 
78 107 
78 108 
78 114 
78 117 
78 118 
78 130 
78 138 
78 141 
78 142 
78 147 
78 153 
78 158 
78 162 
78 163 
78 171 
78 173 
78 175 
79 80 
79 81 
79 89 
79 97 
79 100 
79 105 
79 110 
79 115 
79 119 
79 129 
79 138 
79 139 
79 148 
79 149 
79 154 
79 159 
79 163 
79 164 
79 165 
79 167 
79 169 
79 172 
80 81 
80 85 
80 89 
80 98 
80 99 
80 102 
80 123 
80 124 
80 135 
80 137 
80 143 
80 146 
80 150 
80 151 
80 153 
80 155 
80 162 
80 168 
80 172 
80 173 
80 174 
80 175 
81 90 
81 91 
81 93 
81 101 
81 103 
81 109 
81 114 
81 125 
81 126 
81 135 
81 136 
81 141 
81 147 
81 149 
81 151 
81 152 
81 154 
81 161 
81 167 
81 168 
81 170 
81 172 
82 83 
82 84 
82 85 
82 86 
82 87 
82 88 
82 89 
82 90 
82 91 
82 92 
82 93 
82 94 
82 95 
82 96 
82 97 
82 98 
82 99 
82 100 
82 101 
82 105 
82 121 
82 127 
82 139 
82 143 
82 144 
82 145 
82 146 
82 147 
83 84 
83 85 
83 86 
83 87 
83 88 
83 89 
83 90 
83 91 
83 92 
83 98 
83 102 
83 103 
83 104 
83 105 
83 106 
83 107 
83 108 
83 109 
83 116 
83 122 
83 131 
83 142 
83 144 
83 155 
83 159 
83 166 
83 167 
84 85 
84 86 
84 87 
84 88 
84 89 
84 90 
84 91 
84 93 
84 102 
84 106 
84 110 
84 111 
84 112 
84 113 
84 114 
84 115 
84 116 
84 117 
84 121 
84 133 
84 148 
84 152 
84 153 
84 154 
84 155 
84 156 
84 157 
85 86 
85 87 
85 88 
85 89 
85 90 
85 91 
85 92 
85 98 
85 111 
85 118 
85 123 
85 126 
85 127 
85 128 
85 129 
85 130 
85 131 
85 137 
85 146 
85 151 
85 153 
85 168 
85 174 
85 175 
86 87 
86 88 
86 89 
86 90 
86 91 
86 96 
86 104 
86 108 
86 111 
86 114 
86 119 
86 130 
86 132 
86 133 
86 134 
86 135 
86 136 
86 137 
86 138 
86 141 
86 153 
86 158 
86 162 
86 163 
87 88 
87 89 
87 90 
87 91 
87 95 
87 101 
87 106 
87 112 
87 120 
87 125 
87 126 
87 131 
87 132 
87 134 
87 139 
87 140 
87 141 
87 142 
87 150 
87 164 
87 169 
87 175 
87 176 
88 89 
88 90 
88 91 
88 96 
88 104 
88 112 
88 122 
88 127 
88 128 
88 137 
88 140 
88 148 
88 149 
88 150 
88 151 
88 157 
88 160 
88 163 
88 165 
88 166 
88 173 
89 90 
89 91 
89 97 
89 99 
89 102 
89 105 
89 115 
89 119 
89 124 
89 135 
89 143 
89 149 
89 150 
89 154 
89 155 
89 159 
89 162 
89 164 
89 165 
89 172 
89 173 
90 91 
90 93 
90 107 
90 109 
90 117 
90 118 
90 125 
90 136 
90 138 
90 141 
90 142 
90 147 
90 149 
90 152 
90 168 
90 171 
90 172 
90 173 
90 175 
91 100 
91 101 
91 103 
91 113 
91 114 
91 126 
91 130 
91 135 
91 136 
91 140 
91 145 
91 147 
91 151 
91 154 
91 156 
91 161 
91 164 
91 166 
91 167 
91 170 
91 174 
92 93 
92 94 
92 95 
92 96 
92 97 
92 98 
92 99 
92 100 
92 101 
92 102 
92 103 
92 104 
92 105 
92 106 
92 107 
92 108 
92 109 
92 111 
92 118 
92 126 
92 127 
92 128 
92 129 
92 130 
92 131 
93 94 
93 95 
93 96 
93 97 
93 98 
93 99 
93 100 
93 101 
93 102 
93 109 
93 110 
93 111 
93 112 
93 113 
93 114 
93 115 
93 116 
93 117 
93 125 
93 136 
93 141 
93 149 
93 152 
93 168 
93 172 
94 95 
94 96 
94 97 
94 98 
94 99 
94 100 
94 101 
94 103 
94 109 
94 110 
94 116 
94 118 
94 119 
94 120 
94 121 
94 122 
94 123 
94 124 
94 125 
94 128 
94 146 
94 156 
94 161 
94 162 
94 165 
94 171 
94 176 
95 96 
95 97 
95 98 
95 99 
95 100 
95 101 
95 107 
95 112 
95 113 
95 120 
95 123 
95 126 
95 129 
95 132 
95 134 
95 139 
95 140 
95 141 
95 142 
95 143 
95 152 
95 158 
95 159 
95 160 
95 161 
96 97 
96 98 
96 99 
96 100 
96 101 
96 104 
96 108 
96 114 
96 122 
96 128 
96 130 
96 140 
96 141 
96 148 
96 149 
96 150 
96 151 
96 153 
96 158 
96 162 
96 163 
97 98 
97 99 
97 100 
97 101 
97 105 
97 115 
97 117 
97 119 
97 124 
97 132 
97 144 
97 149 
97 154 
97 157 
97 158 
97 159 
97 164 
97 165 
97 170 
97 174 
97 176 
98 99 
98 100 
98 101 
98 116 
98 122 
98 123 
98 131 
98 137 
98 142 
98 144 
98 146 
98 151 
98 153 
98 155 
98 159 
98 166 
98 167 
98 168 
98 174 
98 175 
99 100 
99 101 
99 102 
99 108 
99 115 
99 120 
99 124 
99 133 
99 135 
99 143 
99 145 
99 150 
99 155 
99 160 
99 162 
99 168 
99 169 
99 170 
99 171 
99 172 
99 173 
100 101 
100 110 
100 113 
100 129 
100 130 
100 136 
100 138 
100 139 
100 140 
100 145 
100 148 
100 156 
100 163 
100 164 
100 166 
100 167 
100 169 
100 172 
100 174 
101 103 
101 106 
101 114 
101 125 
101 126 
101 131 
101 134 
101 135 
101 147 
101 150 
101 151 
101 154 
101 161 
101 164 
101 167 
101 169 
101 170 
101 175 
101 176 
102 103 
102 104 
102 105 
102 106 
102 107 
102 108 
102 109 
102 110 
102 111 
102 112 
102 113 
102 114 
102 115 
102 116 
102 117 
102 124 
102 135 
102 143 
102 150 
102 155 
102 162 
102 172 
102 173 
103 104 
103 105 
103 106 
103 107 
103 108 
103 109 
103 110 
103 114 
103 118 
103 119 
103 120 
103 121 
103 122 
103 123 
103 124 
103 125 
103 126 
103 135 
103 147 
103 151 
103 154 
103 161 
103 167 
103 170 
104 105 
104 106 
104 107 
104 108 
104 109 
104 111 
104 119 
104 122 
104 128 
104 132 
104 133 
104 134 
104 135 
104 136 
104 137 
104 138 
104 140 
104 148 
104 149 
104 150 
104 151 
105 106 
105 107 
105 108 
105 109 
105 115 
105 119 
105 121 
105 127 
105 139 
105 143 
105 144 
105 145 
105 146 
105 147 
105 149 
105 154 
105 159 
105 164 
105 165 
106 107 
106 108 
106 109 
106 121 
106 125 
106 131 
106 133 
106 134 
106 148 
106 150 
106 152 
106 153 
106 154 
106 155 
106 156 
106 157 
106 164 
106 169 
106 175 
106 176 
107 108 
107 109 
107 113 
107 117 
107 118 
107 123 
107 129 
107 134 
107 138 
107 142 
107 143 
107 147 
107 152 
107 158 
107 159 
107 160 
107 161 
107 171 
107 173 
107 175 
108 109 
108 114 
108 115 
108 120 
108 130 
108 133 
108 141 
108 145 
108 153 
108 158 
108 160 
108 162 
108 163 
108 168 
108 169 
108 170 
108 171 
109 116 
109 125 
109 128 
109 136 
109 141 
109 146 
109 149 
109 152 
109 156 
109 161 
109 162 
109 165 
109 168 
109 171 
109 172 
109 176 
110 111 
110 112 
110 113 
110 114 
110 115 
110 116 
110 117 
110 118 
110 119 
110 120 
110 121 
110 122 
110 123 
110 124 
110 125 
110 129 
110 138 
110 139 
110 148 
110 163 
110 167 
110 169 
110 172 
111 112 
111 113 
111 114 
111 115 
111 116 
111 117 
111 118 
111 119 
111 126 
111 127 
111 128 
111 129 
111 130 
111 131 
111 132 
111 133 
111 134 
111 135 
111 136 
111 137 
111 138 
112 113 
112 114 
112 115 
112 116 
112 117 
112 120 
112 126 
112 127 
112 132 
112 137 
112 139 
112 140 
112 141 
112 142 
112 157 
112 160 
112 163 
112 165 
112 166 
112 173 
113 114 
113 115 
113 116 
113 117 
113 123 
113 129 
113 130 
113 134 
113 136 
113 140 
113 143 
113 145 
113 152 
113 156 
113 158 
113 159 
113 160 
113 161 
113 164 
113 166 
113 174 
114 115 
114 116 
114 117 
114 126 
114 130 
114 135 
114 141 
114 147 
114 151 
114 153 
114 154 
114 158 
114 161 
114 162 
114 163 
114 167 
114 170 
115 116 
115 117 
115 119 
115 120 
115 133 
115 145 
115 149 
115 154 
115 159 
115 160 
115 164 
115 165 
115 168 
115 169 
115 170 
115 171 
116 117 
116 122 
116 128 
116 131 
116 142 
116 144 
116 146 
116 155 
116 156 
116 159 
116 161 
116 162 
116 165 
116 166 
116 167 
116 171 
116 176 
117 118 
117 124 
117 132 
117 138 
117 142 
117 144 
117 147 
117 157 
117 158 
117 170 
117 171 
117 173 
117 174 
117 175 
117 176 
118 119 
118 120 
118 121 
118 122 
118 123 
118 124 
118 125 
118 126 
118 127 
118 128 
118 129 
118 130 
118 131 
118 138 
118 142 
118 147 
118 171 
118 173 
118 175 
119 120 
119 121 
119 122 
119 123 
119 124 
119 125 
119 132 
119 133 
119 134 
119 135 
119 136 
119 137 
119 138 
119 149 
119 154 
119 159 
119 164 
119 165 
120 121 
120 122 
120 123 
120 124 
120 125 
120 126 
120 132 
120 133 
120 139 
120 140 
120 141 
120 142 
120 145 
120 160 
120 168 
120 169 
120 170 
120 171 
121 122 
121 123 
121 124 
121 125 
121 127 
121 133 
121 139 
121 143 
121 144 
121 145 
121 146 
121 147 
121 148 
121 152 
121 153 
121 154 
121 155 
121 156 
121 157 
122 123 
122 124 
122 125 
122 128 
122 131 
122 140 
122 142 
122 144 
122 148 
122 149 
122 150 
122 151 
122 155 
122 159 
122 166 
122 167 
123 124 
123 125 
123 129 
123 134 
123 137 
123 143 
123 146 
123 151 
123 152 
123 153 
123 158 
123 159 
123 160 
123 161 
123 168 
123 174 
123 175 
124 125 
124 132 
124 135 
124 143 
124 144 
124 150 
124 155 
124 157 
124 158 
124 162 
124 170 
124 172 
124 173 
124 174 
124 176 
125 131 
125 134 
125 136 
125 141 
125 149 
125 150 
125 152 
125 164 
125 168 
125 169 
125 172 
125 175 
125 176 
126 127 
126 128 
126 129 
126 130 
126 131 
126 132 
126 135 
126 139 
126 140 
126 141 
126 142 
126 147 
126 151 
126 154 
126 161 
126 167 
126 170 
127 128 
127 129 
127 130 
127 131 
127 137 
127 139 
127 143 
127 144 
127 145 
127 146 
127 147 
127 157 
127 160 
127 163 
127 165 
127 166 
127 173 
128 129 
128 130 
128 131 
128 140 
128 146 
128 148 
128 149 
128 150 
128 151 
128 156 
128 161 
128 162 
128 165 
128 171 
128 176 
129 130 
129 131 
129 134 
129 138 
129 139 
129 143 
129 148 
129 152 
129 158 
129 159 
129 160 
129 161 
129 163 
129 167 
129 169 
129 172 
130 131 
130 136 
130 140 
130 141 
130 145 
130 153 
130 156 
130 158 
130 162 
130 163 
130 164 
130 166 
130 174 
131 134 
131 142 
131 144 
131 150 
131 155 
131 159 
131 164 
131 166 
131 167 
131 169 
131 175 
131 176 
132 133 
132 134 
132 135 
132 136 
132 137 
132 138 
132 139 
132 140 
132 141 
132 142 
132 144 
132 157 
132 158 
132 170 
132 174 
132 176 
133 134 
133 135 
133 136 
133 137 
133 138 
133 145 
133 148 
133 152 
133 153 
133 154 
133 155 
133 156 
133 157 
133 160 
133 168 
133 169 
133 170 
133 171 
134 135 
134 136 
134 137 
134 138 
134 143 
134 150 
134 152 
134 158 
134 159 
134 160 
134 161 
134 164 
134 169 
134 175 
134 176 
135 136 
135 137 
135 138 
135 143 
135 147 
135 150 
135 151 
135 154 
135 155 
135 161 
135 162 
135 167 
135 170 
135 172 
135 173 
136 137 
136 138 
136 140 
136 141 
136 145 
136 149 
136 152 
136 156 
136 164 
136 166 
136 168 
136 172 
136 174 
137 138 
137 146 
137 151 
137 153 
137 157 
137 160 
137 163 
137 165 
137 166 
137 168 
137 173 
137 174 
137 175 
138 139 
138 142 
138 147 
138 148 
138 163 
138 167 
138 169 
138 171 
138 172 
138 173 
138 175 
139 140 
139 141 
139 142 
139 143 
139 144 
139 145 
139 146 
139 147 
139 148 
139 163 
139 167 
139 169 
139 172 
140 141 
140 142 
140 145 
140 148 
140 149 
140 150 
140 151 
140 156 
140 164 
140 166 
140 174 
141 142 
141 149 
141 152 
141 153 
141 158 
141 162 
141 163 
141 168 
141 172 
142 144 
142 147 
142 155 
142 159 
142 166 
142 167 
142 171 
142 173 
142 175 
143 144 
143 145 
143 146 
143 147 
143 150 
143 152 
143 155 
143 158 
143 159 
143 160 
143 161 
143 162 
143 172 
143 173 
144 145 
144 146 
144 147 
144 155 
144 157 
144 158 
144 159 
144 166 
144 167 
144 170 
144 174 
144 176 
145 146 
145 147 
145 156 
145 160 
145 164 
145 166 
145 168 
145 169 
145 170 
145 171 
145 174 
146 147 
146 151 
146 153 
146 156 
146 161 
146 162 
146 165 
146 168 
146 171 
146 174 
146 175 
146 176 
147 151 
147 154 
147 161 
147 167 
147 170 
147 171 
147 173 
147 175 
148 149 
148 150 
148 151 
148 152 
148 153 
148 154 
148 155 
148 156 
148 157 
148 163 
148 167 
148 169 
148 172 
149 150 
149 151 
149 152 
149 154 
149 159 
149 164 
149 165 
149 168 
149 172 
150 151 
150 155 
150 162 
150 164 
150 169 
150 172 
150 173 
150 175 
150 176 
151 153 
151 154 
151 161 
151 167 
151 168 
151 170 
151 174 
151 175 
152 153 
152 154 
152 155 
152 156 
152 157 
152 158 
152 159 
152 160 
152 161 
152 168 
152 172 
153 154 
153 155 
153 156 
153 157 
153 158 
153 162 
153 163 
153 168 
153 174 
153 175 
154 155 
154 156 
154 157 
154 159 
154 161 
154 164 
154 165 
154 167 
154 170 
155 156 
155 157 
155 159 
155 162 
155 166 
155 167 
155 172 
155 173 
156 157 
156 161 
156 162 
156 164 
156 165 
156 166 
156 171 
156 174 
156 176 
157 158 
157 160 
157 163 
157 165 
157 166 
157 170 
157 173 
157 174 
157 176 
158 159 
158 160 
158 161 
158 162 
158 163 
158 170 
158 174 
158 176 
159 160 
159 161 
159 164 
159 165 
159 166 
159 167 
160 161 
160 163 
160 165 
160 166 
160 168 
160 169 
160 170 
160 171 
160 173 
161 162 
161 165 
161 167 
161 170 
161 171 
161 176 
162 163 
162 165 
162 171 
162 172 
162 173 
162 176 
163 165 
163 166 
163 167 
163 169 
163 172 
163 173 
164 165 
164 166 
164 169 
164 174 
164 175 
164 176 
165 166 
165 171 
165 173 
165 176 
166 167 
166 173 
166 174 
167 169 
167 170 
167 172 
168 169 
168 170 
168 171 
168 172 
168 174 
168 175 
169 170 
169 171 
169 172 
169 175 
169 176 
170 171 
170 174 
170 176 
171 173 
171 175 
171 176 
172 173 
173 175 
174 175 
174 176 
175 176 
